
  32   50
  13   16   10   12    8   10   22   10   16    9   10   15   13    8   10   16    8   11    6    4   10   13   13   14   10   11   13    6   17    8    6   16    0    0    0    0    0    0    0    0    0    0    0    0    0    0    0    0    0    0

   0   0   0   0   0   0   0   0   0   0   0   0   0   0   0   0   0   0   0   0   0   0   0   0   0   0   0   0   0   0   0   0   0   0   0   0   0   0   0   0   0   0   0   0   0   0   0   0   0   0   0   6 2 3 4 7 8 9 
   9   3   0   5   0   0   0   0   0  10   0   0   0   0   0   0   0   0   0   0   0   0   0   0   0   0   0   0   0   0   0   0   0   0   0   0   0   0   0   0   0   0   0   0   0   0   0   0   0   0   0   6 31 30 21 15 13 5 
   2   0   0   0   6   0   0   0   0   0   0   0   0   0   0   0   0   8   0   0   0   0   0   0   0   0   0   0   0   0   0   0   0   0   0   0   0   0   0   0   0   0   0   0   0   0   0   0   0   0   0   6 31 29 20 13 10 6 
   1   0   0   0   0   0   0   0   0   0   0   0   9   0   0   0   0   0   0   0   4   0   0   0   0   0   0   0   0   0   0   0   0   0   0   0   0   0   0   0   0   0   0   0   0   0   0   0   0   0   0   6 29 27 25 18 16 11 
   1   0   0   0   0   0   0   0   0   0   0   0   0  10   0   0   0   0   0   0   0   0   0   0   0   0   0   0   0   0   0   0   0   0   0   0   0   0   0   0   0   0   0   0   0   0   0   0   0   0   0   7 26 25 23 20 18 17 16 
   9   0   0   0   0   0   0   0   0   0   0   0   0   0   0   0   0   0   0   0   4   0   0   0   0   1   0   0   0   0   0   0   0   0   0   0   0   0   0   0   0   0   0   0   0   0   0   0   0   0   0   7 28 26 25 23 17 14 12 
   5   0   0   0   0   0   0   0   0  10   1   0   0   4   4   0   0   0   0   5   0   0   0   0   0   0   0   0   0   0   0   0   0   0   0   0   0   0   0   0   0   0   0   0   0   0   0   0   0   0   0   7 27 26 25 23 19 17 16 
  10   0   0   0   0   0   0   0   0   0   0   0   0   1   0   0   0   0   0   2   0   0   0   0   0   0   0   3   0   0   0   6   0   0   0   0   0   0   0   0   0   0   0   0   0   0   0   0   0   0   0   8 30 29 27 26 25 24 23 19 
   1   0   0   0   9   0   0   0   0   0   0   0  10   0   0   7   0   0   0   0   0   0   0   0   0   5   0   0   0   0   8   0   8   0   0   0   0   0   0   0   0   0   0   0   0   0   0   0   0   0   0   6 28 26 25 24 23 12 
   3   0   0   0   0   0   0   0   0   0   0   0   3   0   0   0   0   0   0   0   0   0   0  10   0   0   0   0   0   0   0   0   0   0   0   0   0   0   0   0   0   0   0   0   0   0   0   0   0   0   0   5 27 26 25 23 16 
   3   0   0   0   0   0   0   1   0   0   0   0   0  10   0   0   0   0   0   0   0   0   0   0   0   0   0   0   0   0   7   0   0   0   0   0   0   0   0   0   0   0   0   0   0   0   0   0   0   0   0   4 26 24 23 22 
   9   0   0   7   0   0   0   0   0   0   0   0   0   0   0   0   0   0   4   0   0   0   0   7   7   0   2   0   0   0   0   0   0   0   0   0   0   0   0   0   0   0   0   0   0   0   0   0   0   0   0   2 27 19 
   4   0   0   0   0   0   0   9   4   0   0   0   0   0   0   0   9   0   0   0   0   0   0   0   0   0   0   6   0   0   0   0   0   0   0   0   0   0   0   0   0   0   0   0   0   0   0   0   0   0   0   2 27 19 
   2   8   0   0   0   0   0   4   0   0   0   0   0   0   0   0   5   1   4   0   0   0   0   0   0   0   0   0   0   0   0   0   0   0   0   0   0   0   0   0   0   0   0   0   0   0   0   0   0   0   0   2 24 19 
   2   0   0   9   5   0   0   8   0   0   0   0   0   0   0   0   0   0   0   0   0   0   0   0   0   0   0   0   0   0   0   0   6   0   0   0   0   0   0   0   0   0   0   0   0   0   0   0   0   0   0   2 25 19 
   5   0   0   0   0   0   0   0   0   0   0   0   0   8   0   0   0   0   0   3   0   0   0   0   0   0   0   0   0   0   0   0   2   0   0   0   0   0   0   0   0   0   0   0   0   0   0   0   0   0   0   2 28 22 
   7   0   0   0   0   0   0   0   0   0   0   0   0   0   0   0   0   0   0   0   0   0   0   0   0   0   0   0   0   0   0   0   0   0   0   0   0   0   0   0   0   0   0   0   0   0   0   0   0   0   0   2 24 22 
   3   0   0   0   0   8   0   0   0   6   0   0   0   0   0   0   0   0   0   0   0   0   0   6   0   0   0   0   0  10   0   0   0   0   0   0   0   0   0   0   0   0   0   0   0   0   0   0   0   0   0   1 19 
   3   0   7   0   0   0   9   0   0   0   0   0   0   0   0   0   0   0   0   0   0   9   9   0   5   0   0   0   0   0   0   0   0   0   0   0   0   0   0   0   0   0   0   0   0   0   0   0   0   0   0   1 22 
   1   6   0   0   0   0   0   0   0   0   0   0   0   0   3   0   0   0   0   0   0   0   0  10   0   0   0   0   4   0   0   0   0   0   0   0   0   0   0   0   0   0   0   0   0   0   0   0   0   0   0   1 22 
   4   1   0   0   0   0   0   8   0   2   0   0   0   2   5   0   3   0   0   0   0   0   0   0   0   9  10   7   0   0   2   0   0   0   0   0   0   0   0   0   0   0   0   0   0   0   0   0   0   0   0   1 23 
   7   0   0   0   0   0   0   0   0   0   0   0   0   0   0   3   0   0   5   0   0   0   0   0   1   0   0   0   6   0   0   0   0   0   0   0   0   0   0   0   0   0   0   0   0   0   0   0   0   0   0   1 32
  10   0   4   3   0   0   0   0   0   0   0   1   0   0   0   0   0   2   0   0   0   0   7   0   0   8   8   0   0   0   0   0   0   0   0   0   0   0   0   0   0   0   0   0   0   0   0   0   0   0   0   1 32
   2   0   0   0   0   8   0   0   0   0   0  10   0   2   0   6   0   0   0   0   0   0   7   0   0   4   0   0   0   0   0   0   0   0   0   0   0   0   0   0   0   0   0   0   0   0   0   0   0   0   0   1 32
   5   7   0   0   0   0   0   8   2   0   0   0   0   0   0   0   0   1   0   0   0   0   0   0   0   0   0   0   0  10   0   0   0   0   0   0   0   0   0   0   0   0   0   0   0   0   0   0   0   0   0   1 32
   6   0   0   0   0   0   0   0   0   0   0   0   0   1   0   0   0   0   6   0   0   0   0   0   0   0   0   0   4   2   0   0   0   0   0   0   0   0   0   0   0   0   0   0   0   0   0   0   0   0   0   1 32
   3   0   9   0   0   0   0   0   0   0   0   0   0   0   0  10   0   0   0   0   0   0   0   7   0   0   0   0   0   0   0   0   0   0   0   0   0   0   0   0   0   0   0   0   0   0   0   0   0   0   0   1 32
   1   2   7   0   0   0  10   0   0   3   0   2   0   0   0   0   9   0   0   0   0   0   0   1   0   0   0   0   0   2   0   0   0   0   0   0   0   0   0   0   0   0   0   0   0   0   0   0   0   0   0   1 32
   5   0   0   0   0   0   0   0   0   0   9   0   0   0   0   9   3   0   0   0   0   0   0   0  10   0   0   0   0   0   0   0   6   0   0   0   0   0   0   0   0   0   0   0   0   0   0   0   0   0   0   1 32
   3   0   0   0   3   0   0   1   0   0   0   0   5   0   3   0   0   0   0   0   0   0  10   0   0   0   0   4   0   0   0   0   7   0   0   0   0   0   0   0   0   0   0   0   0   0   0   0   0   0   0   1 32
   1   0   0   2   0   7   0   1   8   0   0   4   0   0   0   0   0   0   0   0   0  10   0   0   0   0   0   0   0   0   7   0   0   0   0   0   0   0   0   0   0   0   0   0   0   0   0   0   0   0   0   1 32
   0   0   0   0   0   0   0   0   0   0   0   0   0   0   0   0   0   0   0   0   0   0   0   0   0   0   0   0   0   0   0   0   0   0   0   0   0   0   0   0   0   0   0   0   0   0   0   0   0   0   0   0 
